benchmarks/bfuzz0/1691913138717031401165344130172363360.smt2
(set-logic QF_FP)
(declare-const x0 (_ FloatingPoint 8 24))
(declare-const x1 (_ FloatingPoint 8 24))
(declare-const x2 (_ FloatingPoint 8 24))
(declare-const x3 (_ FloatingPoint 8 24))
(declare-const x4 (_ FloatingPoint 8 24))
(declare-const x5 (_ FloatingPoint 8 24))
(declare-const x6 (_ FloatingPoint 8 24))
(declare-const x7 (_ FloatingPoint 8 24))
(declare-const x8 (_ FloatingPoint 8 24))
(declare-const x9 (_ FloatingPoint 8 24))
(declare-const x10 (_ FloatingPoint 8 24))
(declare-const x11 (_ FloatingPoint 8 24))
(declare-const x12 (_ FloatingPoint 8 24))
(assert (fp.geq (fp.sub RNE (fp.sub RNE (fp.add RNE x6 x1) (fp.sub RNE x5 x1)) (fp.sub RNE (fp.mul RNE x3 x5) (fp.neg x5))) (fp.sub RNE (fp.sub RNE (fp.mul RNE x12 x11) (fp.mul RNE x0 x7)) (fp.neg (fp.div RNE x2 x8)))))
(check-sat)
