db/data/1691913138717031401165344130172363360.z3.out
sat
-------------------
678.625256314
